36
120
84	1
83	1
82	1
81	1
80	1
79	1
75	1
72	2
70	2
67	1
65	3
64	1
62	1
59	1
58	1
56	3
55	1
54	2
52	2
51	1
47	1
45	1
42	1
39	1
38	1
34	2
32	3
30	1
26	1
25	1
23	3
21	1
19	1
15	1
14	2
12	1
